RT is False
Default write of storage_offers_DA.csv just to have a file (but constraint should be inactive)
Reading model...
...model read.
creating competitive generators file...
...competitive generators recorded.
Loading data...
.. day-ahead data with real-time VRE data read.
Compiling instance...
...instance created.
Creating Offer Mitigation (model will solve as dispatch if TRUE)...
NOTE: storage offers will not be mitigated
...storage offer mitigation file created
Converting model to MPEC...
...converted
NOTE: initial MIP solve with only storage competitive to get feasible solution
Solving...

Welcome to IBM(R) ILOG(R) CPLEX(R) Interactive Optimizer 12.9.0.0
  with Simplex, Mixed Integer & Barrier Optimizers
5725-A06 5725-A29 5724-Y48 5724-Y49 5724-Y54 5724-Y55 5655-Y21
Copyright IBM Corp. 1988, 2019.  All Rights Reserved.

Type 'help' for a list of available commands.
Type 'help' followed by a command name for more
information on commands.

CPLEX> Logfile 'cplex.log' closed.
Logfile 'C:\Users\llavin\Desktop\test919\logs\tmpahju6y5u.cplex.log' open.
CPLEX> New value for parallel optimization mode: -1
CPLEX> New value for mixed integer optimality gap tolerance: 0.01
CPLEX> New value for integrality tolerance: 1e-09
CPLEX> New value for feasibility tolerance: 0.01
CPLEX> New value for deterministic time limit in ticks: 75000
CPLEX> Problem 'C:\Users\llavin\Desktop\test919\logs\tmpdz0kd732.pyomo.lp' read.
Read time = 0.23 sec. (14.73 ticks)
CPLEX> Problem name         : C:\Users\llavin\Desktop\test919\logs\tmpdz0kd732.pyomo.lp
Objective sense      : Maximize
Variables            :   53805  [Nneg: 1,  Box: 22000,  Free: 4464,
                                 Binary: 27340]
Objective nonzeros   :    9029
Linear constraints   :  123205  [Less: 41346,  Greater: 59096,  Equal: 22763]
  Nonzeros           :  291753
  RHS nonzeros       :   67491

Variables            : Min LB: -5000.000        Max UB: 1000000.       
Objective nonzeros   : Min   : 0.3666667        Max   : 2500.000       
Linear constraints   :
  Nonzeros           : Min   : 0.3666667        Max   : 1000000.       
  RHS nonzeros       : Min   : 0.3666667        Max   : 1000000.       
CPLEX> CPXPARAM_Parallel                                -1
CPXPARAM_Simplex_Tolerances_Feasibility          0.01
CPXPARAM_DetTimeLimit                            75000
CPXPARAM_MIP_Tolerances_MIPGap                   0.01
CPXPARAM_MIP_Tolerances_Integrality              1.0000000000000001e-09
Tried aggregator 3 times.
MIP Presolve eliminated 88623 rows and 18947 columns.
MIP Presolve added 3377 rows and 0 columns.
MIP Presolve modified 24855 coefficients.
Aggregator did 12986 substitutions.
Reduced MIP has 24973 rows, 21316 columns, and 71224 nonzeros.
Reduced MIP has 8428 binaries, 0 generals, 0 SOSs, and 0 indicators.
Presolve time = 0.30 sec. (173.46 ticks)
Probing fixed 390 vars, tightened 2874 bounds.
Probing time = 1.22 sec. (881.57 ticks)
Tried aggregator 2 times.
MIP Presolve eliminated 877 rows and 780 columns.
MIP Presolve modified 2213 coefficients.
Aggregator did 43 substitutions.
Reduced MIP has 24053 rows, 20493 columns, and 68561 nonzeros.
Reduced MIP has 8038 binaries, 0 generals, 0 SOSs, and 0 indicators.
Presolve time = 0.11 sec. (67.52 ticks)
Probing time = 0.03 sec. (16.02 ticks)
Clique table members: 6466.
MIP emphasis: balance optimality and feasibility.
MIP search method: dynamic search.
Parallel mode: opportunistic, using up to 32 threads.
Root relaxation solution time = 0.44 sec. (512.59 ticks)

        Nodes                                         Cuts/
   Node  Left     Objective  IInf  Best Integer    Best Bound    ItCnt     Gap

      0     0        0.0000   662                      0.0000     6686         
*     0+    0                            0.0000        0.0000             0.00%
      0     0        cutoff              0.0000        0.0000     6686    0.00%
Elapsed time = 2.92 sec. (2095.27 ticks, tree = 0.01 MB, solutions = 1)

Root node processing (before b&c):
  Real time             =    2.94 sec. (2097.22 ticks)
Parallel b&c, 32 threads:
  Real time             =    0.00 sec. (0.00 ticks)
  Sync time (average)   =    0.00 sec.
  Wait time (average)   =    0.00 sec.
                          ------------
Total (root+branch&cut) =    2.94 sec. (2097.22 ticks)

Solution pool: 1 solution saved.

MIP - Integer optimal solution:  Objective =  2.0154402591e-09
Solution time =    2.97 sec.  Iterations = 6686  Nodes = 0
Deterministic time = 2097.37 ticks  (706.42 ticks/sec)

CPLEX> Incumbent solution written to file 'C:\Users\llavin\Desktop\test919\logs\tmprjb3lbau.cplex.sol'.
CPLEX> NOTE: no warmstart specified for MIP iteration, default behavior is true
NOTE: resolving with all competitive generators using storage-only solution to warmstart
Solving...

Welcome to IBM(R) ILOG(R) CPLEX(R) Interactive Optimizer 12.9.0.0
  with Simplex, Mixed Integer & Barrier Optimizers
5725-A06 5725-A29 5724-Y48 5724-Y49 5724-Y54 5724-Y55 5655-Y21
Copyright IBM Corp. 1988, 2019.  All Rights Reserved.

Type 'help' for a list of available commands.
Type 'help' followed by a command name for more
information on commands.

CPLEX> Logfile 'cplex.log' closed.
Logfile 'C:\Users\llavin\Desktop\test919\logs\tmp74pypw_a.cplex.log' open.
CPLEX> New value for parallel optimization mode: -1
CPLEX> New value for mixed integer optimality gap tolerance: 0.01
CPLEX> New value for integrality tolerance: 1e-09
CPLEX> New value for feasibility tolerance: 0.01
CPLEX> New value for deterministic time limit in ticks: 75000
CPLEX> Problem 'C:\Users\llavin\Desktop\test919\logs\tmpyzdeewdd.pyomo.lp' read.
Read time = 0.25 sec. (14.75 ticks)
CPLEX> MIP start file 'C:\Users\llavin\Desktop\test919\logs\tmpk2bvve36.cplex.mst' read.
CPLEX> Problem name         : C:\Users\llavin\Desktop\test919\logs\tmpyzdeewdd.pyomo.lp
Objective sense      : Maximize
Variables            :   54525  [Nneg: 1,  Box: 22720,  Free: 4464,
                                 Binary: 27340]
Objective nonzeros   :    9725
Linear constraints   :  123205  [Less: 41346,  Greater: 59096,  Equal: 22763]
  Nonzeros           :  291753
  RHS nonzeros       :   67491

Variables            : Min LB: -5000.000        Max UB: 1000000.       
Objective nonzeros   : Min   : 0.3666667        Max   : 2500.000       
Linear constraints   :
  Nonzeros           : Min   : 0.3666667        Max   : 1000000.       
  RHS nonzeros       : Min   : 0.3666667        Max   : 1000000.       
CPLEX> CPXPARAM_Parallel                                -1
CPXPARAM_Simplex_Tolerances_Feasibility          0.01
CPXPARAM_DetTimeLimit                            75000
CPXPARAM_MIP_Tolerances_MIPGap                   0.01
CPXPARAM_MIP_Tolerances_Integrality              1.0000000000000001e-09
Warning:  No solution found from 1 MIP starts.
Retaining values of one MIP start for possible repair.
Tried aggregator 3 times.
MIP Presolve eliminated 88623 rows and 19667 columns.
MIP Presolve added 3377 rows and 0 columns.
MIP Presolve modified 24855 coefficients.
Aggregator did 12986 substitutions.
Reduced MIP has 24973 rows, 21316 columns, and 71224 nonzeros.
Reduced MIP has 8428 binaries, 0 generals, 0 SOSs, and 0 indicators.
Presolve time = 0.30 sec. (173.82 ticks)
Probing fixed 390 vars, tightened 2874 bounds.
Probing time = 1.20 sec. (881.57 ticks)
Tried aggregator 2 times.
MIP Presolve eliminated 877 rows and 780 columns.
MIP Presolve modified 2213 coefficients.
Aggregator did 43 substitutions.
Reduced MIP has 24053 rows, 20493 columns, and 68561 nonzeros.
Reduced MIP has 8038 binaries, 0 generals, 0 SOSs, and 0 indicators.
Presolve time = 0.11 sec. (67.52 ticks)
Probing time = 0.03 sec. (16.02 ticks)
Clique table members: 6466.
MIP emphasis: balance optimality and feasibility.
MIP search method: dynamic search.
Parallel mode: opportunistic, using up to 32 threads.
Root relaxation solution time = 0.33 sec. (252.33 ticks)

        Nodes                                         Cuts/
   Node  Left     Objective  IInf  Best Integer    Best Bound    ItCnt     Gap

      0     0   136210.1802  1756                 136210.1802     6320         
      0     0   131018.8057   554                   Cuts: 771     6701         
      0     0   130500.6846   436                   Cuts: 260     6841         
      0     0   130369.8588   416                   Cuts: 105     6909         
      0     0   129544.1213   368                    Cuts: 90     6973         
      0     0   129462.5223   346                    Cuts: 77     7008         
      0     0   129462.5223   336                    Cuts: 47     7022         
      0     0   129462.5223   334                    Cuts: 55     7030         
      0     0   129462.5223   322                    Cuts: 37     7038         
      0     0   128874.7690   328                    Cuts: 36     7053         
      0     0   128871.8825   327                    Cuts: 32     7059         
Repair heuristic found nothing.
      0     2   119393.1260   317                    Cuts: 28     7059         
Elapsed time = 11.41 sec. (6474.11 ticks, tree = 0.02 MB, solutions = 0)
    378    76    77352.5872   260                 115700.9324     8688         
    903   307    82186.4443   279                 110605.9072    12323         
   1569   767    76148.7034   252                 110605.9072    18277         
   2225  1373    infeasible                       110605.9072    33462         
   2977  1420    24271.7643   228                 110605.9072    34921         
   3780  1693    11805.9886   232                 110605.9072    40878         
   4584  2074    -7921.6706   126                 110605.9072    46795         
   5408  3326      -87.9583   183                 110605.9072    56833         
   6435  2902     3904.4728   250                 110605.9072    55044         
   9151  5487    60047.2717   273                 106526.0889    72642         
Elapsed time = 29.20 sec. (9578.04 ticks, tree = 42.55 MB, solutions = 0)
  11676  6262  -275551.1095   138                 103710.4271    80303         
  14124  7969    77687.2229   232                  99155.2444    91327         
  16497  9545    42273.9808   231                  93413.5180   105393         
  19161 11669    infeasible                        91686.7819   136185         
  21661 16285  -100050.1142   284                  90452.8400   224757         
  24077 15580    25286.3108   144                  89611.0044   207771         
  26456 16935   -78455.6693   189                  87445.6711   242011         
  28926 18714    76432.5413   268                  87445.6711   280407         
  31720 20242    29566.0850   247                  86751.7489   306631         
  34190 23077    42345.4885   216                  85434.1253   344901         
Elapsed time = 83.72 sec. (19117.45 ticks, tree = 315.49 MB, solutions = 0)
  36213 26391    29517.3351   210                  85434.1253   395247         
  38815 27525    infeasible                        84648.3940   403509         
  41295 28839    19456.1366   114                  83393.0289   429174         
  43695 31480    21339.2626    50                  82980.8295   462137         
  46025 31935    25745.5938    52                  82980.8295   467010         
  48393 33561    27496.9889   183                  82980.8295   492006         
  50858 32967    36182.7113   160                  82980.8295   482122         
  53402 36446    10692.9027   188                  82980.8295   529322         
  56062 35728    21922.8383   195                  82980.8295   520350         
  58453 36623    39621.0357   240                  82980.8295   530603         
Elapsed time = 133.67 sec. (28657.45 ticks, tree = 443.61 MB, solutions = 0)
  61106 40049    29976.2404   219                  82980.8295   574492         
  63779 36326    40718.7839   177                  82980.8295   529844         
  66232 37305    63117.0874   262                  82980.8295   539179         
  68704 43300    75555.3582   258                  82980.8295   640979         
  70708 40704    37458.0961   174                  82980.8295   589839         
  72551 42121    51240.8247   247                  82980.8295   611339         
  74256 40648    29680.3903    86                  82980.8295   579224         
  76128 43161    27865.9717   203                  82980.8295   637417         
  77840 43304    17503.1892    56                  82980.8295   637691         
  79575 42395    34431.1261   211                  82980.8295   616366         
Elapsed time = 168.69 sec. (38199.37 ticks, tree = 497.34 MB, solutions = 0)
  81178 40976    39815.1137   204                  82980.8295   583794         
  82430 44032    60527.2934   257                  82980.8295   648656         
  83729 44640    infeasible                        82980.8295   661887         
  85150 41507     7865.2806    35                  82980.8295   598703         
  86137 44876    22053.4269    25                  82980.8295   662776         
  87188 39288    27107.1223    46                  82980.8295   556994         
  88248 40568    56103.0894   266                  82980.8295   584088         
  89229 40002   -94182.0723   251                  82980.8295   581978         
  90432 43152    29587.6583    19                  82980.8295   626793         
  91520 45309    29567.7364    43                  82980.8295   666852         
Elapsed time = 185.94 sec. (47741.13 ticks, tree = 523.98 MB, solutions = 0)
  92570 40205    31447.8857   221                  82980.8295   586102         
  93461 44353    -4287.7084   193                  82980.8295   654832         
  94367 40340    20736.6716   182                  82980.8295   588607         
  95335 40496    10920.3365    19                  82980.8295   588881         
  96209 46176     5636.5535    48                  82980.8295   678225         
  96866 40627    31390.7193   230                  82980.8295   590870         
  97595 44097    26097.0821   196                  82980.8295   644433         
  98149 46380    25554.6294   259                  82980.8295   680648         
  98699 46447    20152.1499   260                  82980.8295   682180         
  99180 45458    infeasible                        82980.8295   671299         
Elapsed time = 196.94 sec. (57291.90 ticks, tree = 525.45 MB, solutions = 0)
  99619 42860    27970.0169   199                  82980.8295   613727         
 100056 44446    38681.0509   216                  82980.8295   652161         
 100528 44587    27204.9603    70                  82980.8295   652427         
 100885 46859    64256.7599   257                  82980.8295   687282         
 101240 45364    30857.4004   187                  82980.8295   669813         
 101668 45521    21663.8604    21                  82980.8295   670080         
 101988 44845    59531.8911   229                  82980.8295   656294         
 102453 46027    24664.0335   141                  82980.8295   682618         
 102873 45069    infeasible                        82980.8295   657455         
 103105 47334    infeasible                        82980.8295   693336         
Elapsed time = 205.75 sec. (66862.48 ticks, tree = 543.80 MB, solutions = 0)
 103412 45780    37441.6009   211                  82980.8295   677445         
 103710 46331    29408.7815   220                  82980.8295   686760         
 103856 47585   -53190.0868   268                  82980.8295   696382         
 103955 47669  -211464.4411   218                  82980.8295   697502         
 103977 44273    infeasible                        82980.8295   659030         
 103983 44274    infeasible                        82980.8295   659032         

Cover cuts applied:  50
Implied bound cuts applied:  15
Flow cuts applied:  592
Mixed integer rounding cuts applied:  51
Gomory fractional cuts applied:  62

Root node processing (before b&c):
  Real time             =    9.50 sec. (6427.25 ticks)
Parallel b&c, 32 threads:
  Real time             =  198.70 sec. (69126.13 ticks)
  Sync time (average)   =    0.75 sec.
  Wait time (average)   =    0.00 sec.
                          ------------
Total (root+branch&cut) =  208.20 sec. (75553.38 ticks)


MIP - Deterministic time limit exceeded, no integer solution.
Current MIP best bound =  8.2980829515e+04 (gap is infinite)
Solution time =  208.22 sec.  Iterations = 1207638  Nodes = 103987 (85180)
Deterministic time = 75553.53 ticks  (362.86 ticks/sec)

CPLEX> CPLEX Error  1217: No solution exists.
No file written.
CPLEX> gap is infinite, so writing 0
Exporting results... 
